objective value:                                  -60
t_x12                                               1 	(obj:-100)
t_y12_529                                           1 	(obj:1)
t_y12_127                                           1 	(obj:1)
t_y8_12                                             1 	(obj:1)
t_y12_357                                           1 	(obj:1)
t_y12_446                                           1 	(obj:1)
t_y12_467                                           1 	(obj:1)
t_y12_381                                           1 	(obj:1)
t_y12_261                                           1 	(obj:1)
t_y12_297                                           1 	(obj:1)
t_y12_232                                           1 	(obj:1)
t_y12_234                                           1 	(obj:1)
t_y12_142                                           1 	(obj:1)
t_y12_285                                           1 	(obj:1)
t_y12_523                                           1 	(obj:1)
t_y12_295                                           1 	(obj:1)
t_y12_372                                           1 	(obj:1)
t_y12_439                                           1 	(obj:1)
t_y12_373                                           1 	(obj:1)
t_y12_519                                           1 	(obj:1)
t_y12_139                                           1 	(obj:1)
t_y12_512                                           1 	(obj:1)
t_y12_224                                           1 	(obj:1)
t_y12_217                                           1 	(obj:1)
t_y12_434                                           1 	(obj:1)
t_y12_477                                           1 	(obj:1)
t_y12_593                                           1 	(obj:1)
t_y12_544                                           1 	(obj:1)
t_y12_315                                           1 	(obj:1)
t_y12_479                                           1 	(obj:1)
t_y12_157                                           1 	(obj:1)
t_y12_308                                           1 	(obj:1)
t_y12_539                                           1 	(obj:1)
t_y12_425                                           1 	(obj:1)
t_y12_367                                           1 	(obj:1)
t_y12_533                                           1 	(obj:1)
t_y12_46                                            1 	(obj:1)
t_y12_268                                           1 	(obj:1)
t_y12_361                                           1 	(obj:1)
t_y12_88                                            1 	(obj:1)
t_y12_124                                           1 	(obj:1)
